data;
set K:= K1 K2 K3 K4 K5 K6 K7 ;

set F:= F1 F2 ;

set Q:= Q1 Q2 ;

param T:= 45;
param V: 
	K1  K2  K3  K4  K5  K6  K7  :=
Q1	1   1   1   1   0   0   0   
Q2	0   0   0   0   1   1   1   
; # if resorce k is of type q

param TF:= 
K1 6
K2 6
K3 6
K4 6
K5 12
K6 12
K7 12
; # number of continuous time slots resource can fly

param TR:= 
K1 2
K2 2
K3 2
K4 2
K5 4
K6 4
K7 4
; #  number of continuous time slots resource k needs to rest between flights

param P:= 
K1 36
K2 36
K3 36
K4 36
K5 36
K6 36
K7 36
; #  number of continuous time slots a pilot can be present including rest times for resource k 

param N:= 
K1 4
K2 4
K3 4
K4 4
K5 1
K6 2
K7 2
; # max number of flights resource k can fly in the total time period

param A: 
	K1  K2  K3  K4  K5  K6  K7  :=
1	1   1   1   1   0   1   1   
2	1   1   1   1   0   1   1   
3	1   1   1   1   0   1   1   
4	1   1   1   1   0   1   1   
5	1   1   1   1   0   1   1   
6	1   1   1   1   0   1   1   
7	1   1   1   1   0   1   1   
8	1   1   1   1   0   1   1   
9	1   1   1   1   0   1   1   
10	1   1   1   1   0   1   1   
11	1   1   1   1   0   1   1   
12	1   1   1   1   0   1   1   
13	1   1   1   1   0   1   1   
14	1   1   1   1   0   1   1   
15	1   1   1   1   0   1   1   
16	1   1   1   1   1   1   1   
17	1   1   1   1   1   1   1   
18	1   1   1   1   1   1   1   
19	1   1   1   1   1   1   1   
20	1   1   1   1   1   1   1   
21	1   1   1   1   1   1   1   
22	1   1   1   1   1   1   1   
23	1   1   1   1   1   1   1   
24	1   1   1   1   1   1   1   
25	1   1   1   1   1   1   1   
26	1   1   1   1   1   1   1   
27	1   1   1   1   1   1   1   
28	1   1   1   1   1   1   1   
29	1   1   1   1   1   1   1   
30	1   1   1   1   1   1   1   
31	1   1   1   1   1   1   1   
32	1   1   1   1   1   1   1   
33	1   1   1   1   1   1   1   
34	1   1   1   1   1   1   1   
35	1   1   1   1   1   1   1   
36	1   1   1   1   1   1   1   
37	1   1   1   1   1   1   1   
38	1   1   1   1   1   1   1   
39	1   1   1   1   1   1   1   
40	1   1   1   1   1   1   1   
41	1   1   1   1   1   1   1   
42	1   1   1   1   1   1   1   
43	1   1   1   1   1   1   1   
44	1   1   1   1   1   1   1   
45	1   1   1   1   1   1   1   
; # availability of resorce k in time slot t

param B: 
	F1  F2  :=
Q1	0   0   
Q2	0   0   
; # if front f requires resources of type q

param U: 
	F1  F2  :=
K1	0   0   
K2	0   0   
K3	0   0   
K4	0   0   
K5	2   2   
K6	2   2   
K7	1   1   
; # transit time of resource

param C:= 
K1 900
K2 900
K3 1500
K4 4500
K5 5500
K6 5500
K7 5500
; #  water capacity of resource k

param S:= 
F1 8
F2 9
; # max number of resources that can fly at front f in the same time slot

param D:= 

[*,*,F1 ]:  K1    K2    K3    K4    K5    K6    K7    :=
1           1.84  1.84  1.84  1.46  1.10  1.10  1.10  
2           1.84  1.84  1.84  1.46  1.10  1.10  1.10  
3           1.84  1.84  1.84  1.46  1.10  1.10  1.10  
4           1.84  1.84  1.84  1.46  1.10  1.10  1.10  
5           1.84  1.84  1.84  1.46  1.10  1.10  1.10  
6           1.84  1.84  1.84  1.46  1.10  1.10  1.10  
7           1.84  1.84  1.84  1.46  1.10  1.10  1.10  
8           1.84  1.84  1.84  1.46  1.10  1.10  1.10  
9           1.84  1.84  1.84  1.46  1.10  1.10  1.10  
10          1.84  1.84  1.84  1.46  1.10  1.10  1.10  
11          1.84  1.84  1.84  1.46  1.10  1.10  1.10  
12          1.84  1.84  1.84  1.46  1.10  1.10  1.10  
13          1.84  1.84  1.84  1.46  1.10  1.10  1.10  
14          1.84  1.84  1.84  1.46  1.10  1.10  1.10  
15          1.84  1.84  1.84  1.46  1.10  1.10  1.10  
16          1.84  1.84  1.84  1.46  1.10  1.10  1.10  
17          1.84  1.84  1.84  1.46  1.10  1.10  1.10  
18          1.84  1.84  1.84  1.46  1.10  1.10  1.10  
19          1.84  1.84  1.84  1.46  1.10  1.10  1.10  
20          1.84  1.84  1.84  1.46  1.10  1.10  1.10  
21          1.84  1.84  1.84  1.46  1.10  1.10  1.10  
22          1.84  1.84  1.84  1.46  1.10  1.10  1.10  
23          1.84  1.84  1.84  1.46  1.10  1.10  1.10  
24          1.84  1.84  1.84  1.46  1.10  1.10  1.10  
25          1.75  1.75  1.75  1.39  1.05  1.05  1.05  
26          1.75  1.75  1.75  1.39  1.05  1.05  1.05  
27          1.75  1.75  1.75  1.39  1.05  1.05  1.05  
28          1.75  1.75  1.75  1.39  1.05  1.05  1.05  
29          1.75  1.75  1.75  1.39  1.05  1.05  1.05  
30          1.75  1.75  1.75  1.39  1.05  1.05  1.05  
31          1.75  1.75  1.75  1.39  1.05  1.05  1.05  
32          1.75  1.75  1.75  1.39  1.05  1.05  1.05  
33          1.75  1.75  1.75  1.39  1.05  1.05  1.05  
34          1.84  1.84  1.84  1.46  1.10  1.10  1.10  
35          1.84  1.84  1.84  1.46  1.10  1.10  1.10  
36          1.84  1.84  1.84  1.46  1.10  1.10  1.10  
37          1.84  1.84  1.84  1.46  1.10  1.10  1.10  
38          1.84  1.84  1.84  1.46  1.10  1.10  1.10  
39          1.84  1.84  1.84  1.46  1.10  1.10  1.10  
40          1.84  1.84  1.84  1.46  1.10  1.10  1.10  
41          1.84  1.84  1.84  1.46  1.10  1.10  1.10  
42          1.84  1.84  1.84  1.46  1.10  1.10  1.10  
43          1.84  1.84  1.84  1.46  1.10  1.10  1.10  
44          1.84  1.84  1.84  1.46  1.10  1.10  1.10  
45          1.84  1.84  1.84  1.46  1.10  1.10  1.10  

[*,*,F2 ]:  K1    K2    K3    K4    K5    K6    K7    :=
1           1.85  1.85  1.85  1.48  1.11  1.11  1.11  
2           1.85  1.85  1.85  1.48  1.11  1.11  1.11  
3           1.85  1.85  1.85  1.48  1.11  1.11  1.11  
4           1.85  1.85  1.85  1.48  1.11  1.11  1.11  
5           1.85  1.85  1.85  1.48  1.11  1.11  1.11  
6           1.85  1.85  1.85  1.48  1.11  1.11  1.11  
7           1.85  1.85  1.85  1.48  1.11  1.11  1.11  
8           1.85  1.85  1.85  1.48  1.11  1.11  1.11  
9           1.85  1.85  1.85  1.48  1.11  1.11  1.11  
10          1.85  1.85  1.85  1.48  1.11  1.11  1.11  
11          1.85  1.85  1.85  1.48  1.11  1.11  1.11  
12          1.85  1.85  1.85  1.48  1.11  1.11  1.11  
13          1.85  1.85  1.85  1.48  1.11  1.11  1.11  
14          1.85  1.85  1.85  1.48  1.11  1.11  1.11  
15          1.85  1.85  1.85  1.48  1.11  1.11  1.11  
16          1.85  1.85  1.85  1.48  1.11  1.11  1.11  
17          1.85  1.85  1.85  1.48  1.11  1.11  1.11  
18          1.85  1.85  1.85  1.48  1.11  1.11  1.11  
19          1.85  1.85  1.85  1.48  1.11  1.11  1.11  
20          1.85  1.85  1.85  1.48  1.11  1.11  1.11  
21          1.85  1.85  1.85  1.48  1.11  1.11  1.11  
22          1.85  1.85  1.85  1.48  1.11  1.11  1.11  
23          1.85  1.85  1.85  1.48  1.11  1.11  1.11  
24          1.85  1.85  1.85  1.48  1.11  1.11  1.11  
25          1.76  1.76  1.76  1.40  1.05  1.05  1.05  
26          1.76  1.76  1.76  1.40  1.05  1.05  1.05  
27          1.76  1.76  1.76  1.40  1.05  1.05  1.05  
28          1.76  1.76  1.76  1.40  1.05  1.05  1.05  
29          1.76  1.76  1.76  1.40  1.05  1.05  1.05  
30          1.76  1.76  1.76  1.40  1.05  1.05  1.05  
31          1.76  1.76  1.76  1.40  1.05  1.05  1.05  
32          1.76  1.76  1.76  1.40  1.05  1.05  1.05  
33          1.76  1.76  1.76  1.40  1.05  1.05  1.05  
34          1.85  1.85  1.85  1.48  1.11  1.11  1.11  
35          1.85  1.85  1.85  1.48  1.11  1.11  1.11  
36          1.85  1.85  1.85  1.48  1.11  1.11  1.11  
37          1.85  1.85  1.85  1.48  1.11  1.11  1.11  
38          1.85  1.85  1.85  1.48  1.11  1.11  1.11  
39          1.85  1.85  1.85  1.48  1.11  1.11  1.11  
40          1.85  1.85  1.85  1.48  1.11  1.11  1.11  
41          1.85  1.85  1.85  1.48  1.11  1.11  1.11  
42          1.85  1.85  1.85  1.48  1.11  1.11  1.11  
43          1.85  1.85  1.85  1.48  1.11  1.11  1.11  
44          1.85  1.85  1.85  1.48  1.11  1.11  1.11  
45          1.85  1.85  1.85  1.48  1.11  1.11  1.11  
; # downloads resource k can do at front f in time t if intermediate time slot

param E:= 

[*,*,F1 ]:  K1    K2    K3    K4    K5    K6    K7    :=
1           0.86  0.79  0.09  0.00  0.48  0.07  0.15  
2           0.86  0.79  0.09  0.00  0.48  0.07  0.15  
3           0.86  0.79  0.09  0.00  0.48  0.07  0.15  
4           0.86  0.79  0.09  0.00  0.48  0.07  0.15  
5           0.86  0.79  0.09  0.00  0.48  0.07  0.15  
6           0.86  0.79  0.09  0.00  0.48  0.07  0.15  
7           0.86  0.79  0.09  0.00  0.48  0.07  0.15  
8           0.86  0.79  0.09  0.00  0.48  0.07  0.15  
9           0.86  0.79  0.09  0.00  0.48  0.07  0.15  
10          0.86  0.79  0.09  0.00  0.48  0.07  0.15  
11          0.86  0.79  0.09  0.00  0.48  0.07  0.15  
12          0.86  0.79  0.09  0.00  0.48  0.07  0.15  
13          0.86  0.79  0.09  0.00  0.48  0.07  0.15  
14          0.86  0.79  0.09  0.00  0.48  0.07  0.15  
15          0.86  0.79  0.09  0.00  0.48  0.07  0.15  
16          0.86  0.79  0.09  0.00  0.48  0.07  0.15  
17          0.86  0.79  0.09  0.00  0.48  0.07  0.15  
18          0.86  0.79  0.09  0.00  0.48  0.07  0.15  
19          0.86  0.79  0.09  0.00  0.48  0.07  0.15  
20          0.86  0.79  0.09  0.00  0.48  0.07  0.15  
21          0.86  0.79  0.09  0.00  0.48  0.07  0.15  
22          0.86  0.79  0.09  0.00  0.48  0.07  0.15  
23          0.86  0.79  0.09  0.00  0.48  0.07  0.15  
24          0.86  0.79  0.09  0.00  0.48  0.07  0.15  
25          0.82  0.75  0.09  0.00  0.46  0.06  0.15  
26          0.82  0.75  0.09  0.00  0.46  0.06  0.15  
27          0.82  0.75  0.09  0.00  0.46  0.06  0.15  
28          0.82  0.75  0.09  0.00  0.46  0.06  0.15  
29          0.82  0.75  0.09  0.00  0.46  0.06  0.15  
30          0.82  0.75  0.09  0.00  0.46  0.06  0.15  
31          0.82  0.75  0.09  0.00  0.46  0.06  0.15  
32          0.82  0.75  0.09  0.00  0.46  0.06  0.15  
33          0.82  0.75  0.09  0.00  0.46  0.06  0.15  
34          0.86  0.79  0.09  0.00  0.48  0.07  0.15  
35          0.86  0.79  0.09  0.00  0.48  0.07  0.15  
36          0.86  0.79  0.09  0.00  0.48  0.07  0.15  
37          0.86  0.79  0.09  0.00  0.48  0.07  0.15  
38          0.86  0.79  0.09  0.00  0.48  0.07  0.15  
39          0.86  0.79  0.09  0.00  0.48  0.07  0.15  
40          0.86  0.79  0.09  0.00  0.48  0.07  0.15  
41          0.86  0.79  0.09  0.00  0.48  0.07  0.15  
42          0.86  0.79  0.09  0.00  0.48  0.07  0.15  
43          0.86  0.79  0.09  0.00  0.48  0.07  0.15  
44          0.86  0.79  0.09  0.00  0.48  0.07  0.15  
45          0.86  0.79  0.09  0.00  0.48  0.07  0.15  

[*,*,F2 ]:  K1    K2    K3    K4    K5    K6    K7    :=
1           0.70  0.63  0.02  0.04  0.43  0.12  0.09  
2           0.70  0.63  0.02  0.04  0.43  0.12  0.09  
3           0.70  0.63  0.02  0.04  0.43  0.12  0.09  
4           0.70  0.63  0.02  0.04  0.43  0.12  0.09  
5           0.70  0.63  0.02  0.04  0.43  0.12  0.09  
6           0.70  0.63  0.02  0.04  0.43  0.12  0.09  
7           0.70  0.63  0.02  0.04  0.43  0.12  0.09  
8           0.70  0.63  0.02  0.04  0.43  0.12  0.09  
9           0.70  0.63  0.02  0.04  0.43  0.12  0.09  
10          0.70  0.63  0.02  0.04  0.43  0.12  0.09  
11          0.70  0.63  0.02  0.04  0.43  0.12  0.09  
12          0.70  0.63  0.02  0.04  0.43  0.12  0.09  
13          0.70  0.63  0.02  0.04  0.43  0.12  0.09  
14          0.70  0.63  0.02  0.04  0.43  0.12  0.09  
15          0.70  0.63  0.02  0.04  0.43  0.12  0.09  
16          0.70  0.63  0.02  0.04  0.43  0.12  0.09  
17          0.70  0.63  0.02  0.04  0.43  0.12  0.09  
18          0.70  0.63  0.02  0.04  0.43  0.12  0.09  
19          0.70  0.63  0.02  0.04  0.43  0.12  0.09  
20          0.70  0.63  0.02  0.04  0.43  0.12  0.09  
21          0.70  0.63  0.02  0.04  0.43  0.12  0.09  
22          0.70  0.63  0.02  0.04  0.43  0.12  0.09  
23          0.70  0.63  0.02  0.04  0.43  0.12  0.09  
24          0.70  0.63  0.02  0.04  0.43  0.12  0.09  
25          0.67  0.60  0.02  0.04  0.41  0.12  0.08  
26          0.67  0.60  0.02  0.04  0.41  0.12  0.08  
27          0.67  0.60  0.02  0.04  0.41  0.12  0.08  
28          0.67  0.60  0.02  0.04  0.41  0.12  0.08  
29          0.67  0.60  0.02  0.04  0.41  0.12  0.08  
30          0.67  0.60  0.02  0.04  0.41  0.12  0.08  
31          0.67  0.60  0.02  0.04  0.41  0.12  0.08  
32          0.67  0.60  0.02  0.04  0.41  0.12  0.08  
33          0.67  0.60  0.02  0.04  0.41  0.12  0.08  
34          0.70  0.63  0.02  0.04  0.43  0.12  0.09  
35          0.70  0.63  0.02  0.04  0.43  0.12  0.09  
36          0.70  0.63  0.02  0.04  0.43  0.12  0.09  
37          0.70  0.63  0.02  0.04  0.43  0.12  0.09  
38          0.70  0.63  0.02  0.04  0.43  0.12  0.09  
39          0.70  0.63  0.02  0.04  0.43  0.12  0.09  
40          0.70  0.63  0.02  0.04  0.43  0.12  0.09  
41          0.70  0.63  0.02  0.04  0.43  0.12  0.09  
42          0.70  0.63  0.02  0.04  0.43  0.12  0.09  
43          0.70  0.63  0.02  0.04  0.43  0.12  0.09  
44          0.70  0.63  0.02  0.04  0.43  0.12  0.09  
45          0.70  0.63  0.02  0.04  0.43  0.12  0.09  
; # downloads resource k can do at front f in time t if starting or ending flight

param W: 
	F1        F2        :=
1	549.50    295.89    
2	2198.00   1183.54   
3	2198.00   1183.54   
4	2198.00   1183.54   
5	2198.00   1183.54   
6	2198.00   1183.54   
7	2198.00   1183.54   
8	2198.00   1183.54   
9	2198.00   1183.54   
10	2198.00   1183.54   
11	2198.00   1183.54   
12	2198.00   1183.54   
13	2198.00   1183.54   
14	2198.00   1183.54   
15	2198.00   1183.54   
16	2198.00   1183.54   
17	2198.00   1183.54   
18	2198.00   1183.54   
19	976.89    526.02    
20	976.89    526.02    
21	976.89    526.02    
22	976.89    526.02    
23	976.89    526.02    
24	976.89    526.02    
25	976.89    526.02    
26	976.89    526.02    
27	976.89    526.02    
28	976.89    526.02    
29	976.89    526.02    
30	976.89    526.02    
31	976.89    526.02    
32	976.89    526.02    
33	976.89    526.02    
34	976.89    526.02    
35	976.89    526.02    
36	976.89    526.02    
37	976.89    526.02    
38	976.89    526.02    
39	976.89    526.02    
40	976.89    526.02    
41	976.89    526.02    
42	976.89    526.02    
43	976.89    526.02    
44	976.89    526.02    
45	244.22    131.50    
; # water needed at front f in time slot t

param M := 100000000; 

param a1:= 10000000;

param a2:= 100;

param a3:= 0.0001;
